96 96
46 28
21 40
50 48
2 45
40 31
4 27
9 11
76 22
81 48
8 25
18 1
16 33
87 30
48 16
96 2
66 19
41 26
24 28
3 21
59 34
12 37
6 21
7 23
1 32
28 22
32 18
20 24
55 44
63 18
38 29
47 34
58 37
94 5
35 30
82 15
31 3
73 17
61 44
86 36
25 46
51 2
45 40
37 13
89 29
62 9
54 7
64 20
34 38
95 25
15 1
17 27
90 17
74 7
84 46
67 16
29 13
57 38
23 47
19 23
14 43
10 31
69 43
49 14
56 6
79 35
13 8
52 36
68 39
26 8
60 24
71 11
39 20
85 6
75 12
65 10
11 10
42 35
30 32
92 42
77 19
80 41
70 47
27 9
83 15
43 12
5 4
36 26
78 3
93 45
53 42
72 39
88 14
22 5
44 4
33 33
91 41
